p cnf 12 50 
-4 -10 -12 0
-2 -4 10 0
-8 12 -2 0
2 8 12 0
2 7 12 0
3 -7 5 0
1 -9 5 0
-3 -12 -6 0
5 12 -10 0
11 -12 10 0
2 10 -4 0
3 -5 -2 0
-2 -5 -3 0
-3 -8 12 0
9 -6 -12 0
-1 -4 -3 0
10 -9 -12 0
-2 12 9 0
-2 -12 4 0
7 6 10 0
-4 2 6 0
-12 -6 -11 0
9 6 11 0
-10 4 11 0
-10 -9 11 0
9 6 -3 0
-10 -1 8 0
3 6 1 0
5 -7 -6 0
6 -2 -11 0
-10 8 -4 0
-1 -2 11 0
1 6 -5 0
-2 -11 -9 0
11 -8 -9 0
7 -4 1 0
7 -6 12 0
-8 5 -11 0
-3 -9 5 0
-12 -6 5 0
4 -8 -3 0
1 7 5 0
-12 -3 -9 0
7 -8 -9 0
-8 -11 -4 0
2 3 -12 0
9 -3 4 0
1 -7 3 0
-4 -9 -3 0
2 12 -6 0
